8397
1, 49, 36, 35, 34, 39, 40, 37, 38, 15, 43, 33, 51, 28, 27, 26, 47, 13, 14, 52, 11, 12, 25, 4, 6, 5, 24, 48, 46, 44, 16, 29, 50, 20, 23, 30, 42, 2, 7, 17, 21, 31, 32, 45, 19, 10, 9, 8, 41, 3, 18, 22
